WARNING: for repeatability, setting FPU to use double precision
============================[ Problem Statistics ]=============================
|                                                                             |
|  Number of variables:           100                                         |
|  Number of clauses:             449                                         |
|  Parse time:                   0.00 s                                       |
|  Simplification time:          0.00 s                                       |
|                                                                             |
============================[ Search Statistics ]==============================
| Conflicts |          ORIGINAL         |          LEARNT          | Progress |
|           |    Vars  Clauses Literals |    Limit  Clauses Lit/Cl |          |
===============================================================================
===============================================================================
restarts              : 1
conflicts             : 88             (38732 /sec)
decisions             : 111            (0.00 % random) (48856 /sec)
propagations          : 2292           (1008803 /sec)
conflict literals     : 588            (24.13 % deleted)
Memory used           : 13.00 MB
CPU time              : 0.002272 s

SATISFIABLE
